data;

param n := 10;

param : E  : t :=
	1 2   5.009
	1 5   5.718
	1 6   1.730
	1 9   7.712
	2 3   2.050
	2 5   7.351
	2 7   4.269
	2 9   5.841
	3 5   6.533
	3 6   6.765
	3 10   8.979
	4 5   7.753
	4 7   9.360
	4 9   9.058
	5 8   2.574
	5 9   1.450
	5 10   9.822
	6 7   6.409
	6 8   2.838
	7 8   4.859
	7 10   1.667
	8 9   2.839
	9 10   8.787
;

param c:=
1	2
2	1
3	4
4	5
5	1
6	3
7	3
8	2
9	4
10	3;

 param T:= 8;